NAME: exemplo_20
TYPE: TSP
COMMENT: Exemplo de TSP euclidiano com 20 vértices
DIMENSION: 20
EDGE_WEIGHT_TYPE: EUC_2D
NODE_COORD_SECTION
1 10 20
2 15 25
3 20 10
4 5 10
5 25 30
6 30 15
7 35 20
8 10 30
9 20 35
10 5 25
11 15 5
12 30 5
13 40 30
14 25 10
15 5 15
16 10 35
17 20 20
18 35 10
19 40 5
20 15 30
EOF
